SYSTEM = HZO
PREC = Accurate
ISTART = 0
ICHARG = 2
ISPIN = 1

ENCUT = 600
NELM = 90
NELMIN = 6
EDIFF = 1E-6
LREAL = Auto
ALGO = Normal
GGA = PS

IBRION = -1
#POTIM = 0.2
#ISIF = 3
#EDIFFG = -0.01
#ISYM = 0

NSW = 0
ISMEAR = 0
SIGMA = 0.05

LWAVE = .FALSE.
LCHARG = .FALSE.

KSPACING = 0.300000
KGAMMA = .TRUE.

#KPAR = 2
